DIMENSION: 10
EDGE_WEIGHT_TYPE: EXPLICIT
EDGE_WEIGHT_FORMAT: FULL_MATRIX
EDGE_WEIGHT_SECTION:
32767 32767 32767 23 88 81 32767 9 75 100 
32767 32767 68 14 9 55 75 79 57 12 
32767 68 32767 24 2 43 94 87 27 59 
23 14 24 32767 52 12 41 79 68 97 
88 9 2 52 32767 32767 5 35 65 85 
81 55 43 12 32767 32767 84 72 36 23 
32767 75 94 41 5 84 32767 36 100 64 
9 79 87 79 35 72 36 32767 5 96 
75 57 27 68 65 36 100 5 32767 32767 
100 12 59 97 85 23 64 96 32767 32767 
EOF